Version identifier: 22.1.0.0 | 2022-03-09 | 1a383f8ce
CPXPARAM_Threads                                 1
CPXPARAM_MIP_Strategy_VariableSelect             3
CPXPARAM_TimeLimit                               599.99522329299998
Tried aggregator 1 time.
MIP Presolve eliminated 412 rows and 800 columns.
MIP Presolve modified 1 coefficients.
Reduced MIP has 1000 rows, 1600 columns, and 11702 nonzeros.
Reduced MIP has 1600 binaries, 0 generals, 0 SOSs, and 0 indicators.
Presolve time = 0.02 sec. (8.21 ticks)
Probing time = 0.00 sec. (3.81 ticks)
Tried aggregator 1 time.
Detecting symmetries...
Reduced MIP has 1000 rows, 1600 columns, and 11702 nonzeros.
Reduced MIP has 1600 binaries, 0 generals, 0 SOSs, and 0 indicators.
Presolve time = 0.01 sec. (6.99 ticks)
Probing time = 0.00 sec. (3.81 ticks)
Clique table members: 599.
MIP emphasis: balance optimality and feasibility.
MIP search method: dynamic search.
Parallel mode: none, using 1 thread.
Root relaxation solution time = 0.02 sec. (13.53 ticks)

        Nodes                                         Cuts/
   Node  Left     Objective  IInf  Best Integer    Best Bound    ItCnt     Gap

      0     0    infeasible                                        483         

Root node processing (before b&c):
  Real time             =    0.11 sec. (71.84 ticks)
Sequential b&c:
  Real time             =    0.00 sec. (0.00 ticks)
                          ------------
Total (root+branch&cut) =    0.11 sec. (71.84 ticks)
Primal:	199
Dual:	199
Status:	Optimal
Time:	0.138867
Sequence:
	0
